(set-logic LRA)
 
(define-fun OutputNeuron_0_idx0 ((onnx__MatMul_0_0 Real) (onnx__MatMul_0_1 Real) (onnx__MatMul_0_2 Real) (onnx__MatMul_0_3 Real) (onnx__MatMul_0_4 Real) (onnx__MatMul_0_5 Real) (onnx__MatMul_0_6 Real) (onnx__MatMul_0_7 Real)) Real
  (+ (/ 39911.0 200000.0)
   (* (- (/ 979913.0 500000.0)) onnx__MatMul_0_0)
   (* (- (/ 939847.0 1000000.0)) onnx__MatMul_0_1)
   (* (/ 60517.0 500000.0) onnx__MatMul_0_2)
   (* (/ 1522029.0 1000000.0) onnx__MatMul_0_3)
   (* (- (/ 715241.0 500000.0)) onnx__MatMul_0_4)
   (* (/ 524359.0 1000000.0) onnx__MatMul_0_5)
   (* (/ 124933.0 125000.0) onnx__MatMul_0_6)
   (* (- (/ 1824437.0 500000.0)) onnx__MatMul_0_7))
)

(define-fun OutputNeuron_0_idx1 ((onnx__MatMul_0_0 Real) (onnx__MatMul_0_1 Real) (onnx__MatMul_0_2 Real) (onnx__MatMul_0_3 Real) (onnx__MatMul_0_4 Real) (onnx__MatMul_0_5 Real) (onnx__MatMul_0_6 Real) (onnx__MatMul_0_7 Real)) Real
  (+ (- (/ 10063.0 40000.0))
   (* (/ 1030963.0 500000.0) onnx__MatMul_0_0)
   (* (/ 215907.0 500000.0) onnx__MatMul_0_1)
   (* (/ 46809.0 250000.0) onnx__MatMul_0_2)
   (* (- (/ 1701457.0 1000000.0)) onnx__MatMul_0_3)
   (* (/ 859153.0 500000.0) onnx__MatMul_0_4)
   (* (- (/ 12121.0 40000.0)) onnx__MatMul_0_5)
   (* (- (/ 1237819.0 1000000.0)) onnx__MatMul_0_6)
   (* (/ 4141817.0 1000000.0) onnx__MatMul_0_7))
)

